p edge 700 3484
1 2
1 82
1 457
1 552
1 517
2 217
2 699
2 3
2 675
2 462
3 99
3 344
3 277
3 122
3 4
4 5
4 312
4 577
4 79
4 165
5 323
5 156
5 502
5 171
5 6
6 47
6 273
6 296
6 7
6 614
7 443
7 6
7 274
7 8
7 371
8 85
8 658
8 9
8 358
8 682
9 335
9 282
9 598
9 229
9 10
10 621
10 22
10 11
10 619
10 420
11 550
11 262
11 12
11 175
11 221
12 13
12 228
12 333
12 407
12 17
13 302
13 32
13 14
13 303
13 292
14 655
14 15
14 484
14 486
14 415
15 83
15 670
15 699
15 16
15 162
16 611
16 213
16 405
16 265
16 17
17 352
17 407
17 18
17 287
17 84
18 689
18 496
18 19
18 80
18 425
19 269
19 653
19 622
19 20
19 623
20 174
20 277
20 237
20 591
20 21
21 399
21 171
21 22
21 571
21 204
22 178
22 206
22 496
22 138
22 23
23 12
23 82
23 24
23 503
23 128
24 25
24 521
24 272
24 675
24 576
25 336
25 26
25 82
25 250
25 684
26 386
26 100
26 550
26 391
26 27
27 28
27 299
27 100
27 222
27 636
28 524
28 493
28 29
28 378
28 324
29 273
29 397
29 389
29 186
29 30
30 31
30 506
30 624
30 404
30 75
31 102
31 431
31 685
31 32
31 426
32 519
32 33
32 623
32 88
32 511
33 34
33 448
33 295
33 20
33 104
34 105
34 35
34 208
34 652
34 671
35 42
35 36
35 598
35 690
35 332
36 37
36 268
36 188
36 368
36 687
37 558
37 38
37 294
37 82
37 316
38 509
38 39
38 157
38 208
38 277
39 214
39 50
39 26
39 62
39 40
40 479
40 466
40 41
40 3
40 392
41 322
41 521
41 511
41 426
41 42
42 538
42 485
42 80
42 606
42 43
43 315
43 475
43 44
43 34
43 596
44 619
44 45
44 610
44 592
44 203
45 255
45 46
45 529
45 417
45 534
46 473
46 663
46 47
46 109
46 402
47 37
47 48
47 368
47 567
47 487
48 49
48 449
48 94
48 345
48 173
49 10
49 125
49 369
49 50
49 158
50 16
50 51
50 33
50 153
50 542
51 246
51 52
51 489
51 561
51 355
52 53
52 54
52 538
52 152
52 588
53 54
53 45
53 322
53 664
54 579
54 151
54 211
54 457
54 55
55 56
55 516
55 559
55 25
55 198
56 57
56 72
56 126
56 249
56 474
57 157
57 356
57 58
57 318
57 471
58 661
58 226
58 278
58 17
58 59
59 478
59 326
59 491
59 15
59 60
60 560
60 523
60 450
60 61
60 672
61 680
61 494
61 500
61 363
61 62
62 63
62 672
62 612
62 8
62 440
63 540
63 321
63 236
63 600
63 64
64 35
64 65
64 402
64 661
64 508
65 255
65 66
65 21
65 552
66 362
66 367
66 354
66 67
66 393
67 543
67 450
67 68
67 8
67 185
68 2
68 518
68 157
68 568
68 69
69 422
69 581
69 509
69 70
69 458
70 259
70 108
70 91
70 71
70 493
71 32
71 649
71 348
71 72
71 650
72 437
72 494
72 73
72 606
72 181
73 125
73 203
73 700
73 74
73 38
74 432
74 697
74 75
74 400
74 511
75 370
75 292
75 129
75 329
75 76
76 463
76 141
76 680
76 144
76 77
77 78
77 451
77 334
77 696
77 71
78 449
78 79
78 459
78 172
78 362
79 260
79 555
79 569
79 643
79 80
80 475
80 263
80 493
80 81
80 295
81 406
81 304
81 256
81 21
81 82
82 83
82 611
82 4
82 164
82 597
83 660
83 10
83 84
83 229
83 609
84 85
84 83
84 325
84 557
84 456
85 41
85 249
85 25
85 576
85 86
86 76
86 60
86 87
86 35
86 472
87 675
87 263
87 88
87 52
87 414
88 89
88 671
88 404
88 428
88 74
89 236
89 161
89 90
89 483
89 449
90 91
90 216
90 505
90 406
90 189
91 572
91 92
91 307
91 430
91 442
92 142
92 362
92 93
92 667
92 476
93 69
93 94
93 284
93 617
93 60
94 520
94 196
94 95
94 533
94 439
95 96
95 698
95 306
95 78
95 262
96 387
96 57
96 339
96 97
96 227
97 31
97 171
97 98
97 315
97 699
98 477
98 168
98 476
98 560
98 99
99 32
99 260
99 483
99 150
99 100
100 294
100 108
100 247
100 101
100 20
101 372
101 416
101 549
101 102
102 646
102 586
102 103
102 57
102 622
103 349
103 317
103 340
103 680
103 104
104 470
104 276
104 105
104 6
104 349
105 135
105 325
105 645
105 106
105 243
106 107
106 448
106 61
106 385
106 670
107 54
107 15
107 275
107 84
107 108
108 480
108 343
108 109
108 22
108 292
109 69
109 319
109 110
109 126
109 591
110 329
110 480
110 424
110 111
110 364
111 112
111 116
111 349
111 97
111 697
112 204
112 92
112 619
112 113
112 151
113 114
113 112
113 45
113 696
113 474
114 616
114 84
114 115
114 493
114 554
115 384
115 126
115 452
115 116
115 131
116 303
116 117
116 89
116 83
116 379
117 118
117 681
117 144
117 308
117 578
118 106
118 413
118 388
118 310
118 119
119 207
119 58
119 566
119 120
119 70
120 365
120 121
120 587
120 655
120 492
121 308
121 541
121 660
121 426
121 122
122 301
122 45
122 338
122 579
122 123
123 180
123 231
123 531
123 124
123 83
124 101
124 125
124 56
124 476
124 630
125 196
125 568
125 123
125 126
125 675
126 472
126 450
126 127
126 257
126 160
127 514
127 214
127 295
127 128
127 557
128 129
128 512
128 610
128 497
128 442
129 104
129 504
129 227
129 130
129 573
130 641
130 292
130 140
130 258
130 131
131 649
131 132
131 32
131 545
131 109
132 361
132 312
132 133
132 633
132 490
133 97
133 289
133 604
133 134
133 245
134 136
134 271
134 539
134 525
134 135
135 136
135 41
135 627
135 565
135 360
136 137
136 387
136 650
136 370
136 485
137 76
137 649
137 96
137 440
137 138
138 119
138 139
138 215
138 510
138 675
139 479
139 508
139 140
139 199
139 429
140 320
140 672
140 141
140 75
141 548
141 278
141 142
141 342
141 159
142 489
142 29
142 143
142 460
143 144
143 98
143 514
143 660
143 220
144 145
144 460
144 384
144 82
144 422
145 361
145 36
145 687
145 146
145 415
146 24
146 147
146 640
146 602
146 206
147 304
147 381
147 84
147 148
147 118
148 539
148 507
148 589
148 149
148 484
149 150
149 76
149 629
149 465
149 493
150 151
150 124
150 445
150 248
150 573
151 91
151 371
151 260
151 590
151 152
152 318
152 626
152 153
152 557
152 276
153 159
153 98
153 171
153 225
153 154
154 155
154 700
154 92
154 158
154 665
155 63
155 199
155 469
155 527
155 156
156 454
156 365
156 53
156 499
156 157
157 364
157 201
157 375
157 158
157 455
158 670
158 641
158 341
158 159
158 25
159 465
159 463
159 673
159 3
159 160
160 84
160 587
160 308
160 161
160 539
161 90
161 683
161 9
161 162
161 638
162 71
162 224
162 410
162 163
162 599
163 267
163 698
163 164
163 409
163 549
164 333
164 640
164 165
164 649
164 428
165 693
165 247
165 337
165 169
165 166
166 565
166 448
166 167
166 612
166 215
167 10
167 594
167 320
167 168
167 59
168 79
168 189
168 307
168 270
168 169
169 170
169 404
169 182
169 648
169 288
170 189
170 171
170 36
170 416
170 3
171 59
171 303
171 379
171 515
171 172
172 438
172 173
172 649
172 443
172 596
173 174
173 15
173 355
173 642
173 543
174 17
174 175
174 668
174 30
174 635
175 331
175 361
175 183
175 176
175 6
176 167
176 19
176 177
176 691
176 7
177 10
177 178
177 223
177 672
177 104
178 166
178 179
178 340
178 206
178 7
179 207
179 548
179 482
179 180
179 350
180 107
180 181
180 206
180 593
180 571
181 680
181 182
181 643
181 596
181 32
182 319
182 582
182 547
182 183
182 630
183 352
183 563
183 53
183 509
183 184
184 185
184 190
184 691
184 577
184 333
185 389
185 453
185 698
185 209
185 186
186 160
186 432
186 140
186 401
186 187
187 188
187 543
187 529
187 632
187 600
188 580
188 189
188 159
188 175
188 89
189 344
189 627
189 165
189 190
189 485
190 178
190 424
190 472
190 541
190 191
191 77
191 518
191 98
191 192
191 548
192 188
192 367
192 193
192 410
192 84
193 500
193 194
193 366
193 457
193 92
194 521
194 483
194 195
194 691
194 206
195 142
195 37
195 241
195 414
195 196
196 587
196 692
196 197
196 336
196 365
197 173
197 198
197 308
197 257
197 281
198 34
198 31
198 468
198 199
198 52
199 200
199 509
199 281
199 96
199 636
200 201
200 483
200 618
200 428
200 562
201 633
201 500
201 343
201 116
201 202
202 283
202 92
202 192
202 203
202 590
203 584
203 144
203 35
203 492
203 204
204 56
204 654
204 313
204 599
204 205
205 206
205 282
205 77
205 7
205 85
206 76
206 46
206 207
206 144
206 466
207 586
207 562
207 552
207 208
207 564
208 260
208 412
208 209
208 397
208 226
209 315
209 175
209 245
209 271
209 210
210 432
210 211
210 435
210 88
210 267
211 315
211 306
211 150
211 212
211 144
212 521
212 696
212 213
212 421
212 344
213 269
213 96
213 214
213 638
213 406
214 390
214 36
214 215
214 328
214 20
215 233
215 216
215 670
215 318
215 528
216 363
216 217
216 111
216 556
216 189
217 218
217 343
217 2
217 34
217 261
218 454
218 201
218 87
218 638
218 219
219 220
219 12
219 689
219 653
219 61
220 194
220 267
220 503
220 221
220 165
221 217
221 238
221 104
221 222
221 379
222 258
222 223
222 29
222 533
222 542
223 302
223 76
223 669
223 336
223 224
224 409
224 225
224 17
224 350
224 526
225 622
225 443
225 165
225 511
225 226
226 683
226 603
226 26
226 50
226 227
227 489
227 68
227 85
227 228
227 169
228 229
228 344
228 633
228 689
228 288
229 354
229 86
229 194
229 230
229 522
230 139
230 319
230 124
230 215
230 231
231 232
231 201
231 305
231 433
231 504
232 376
232 38
232 348
232 233
232 413
233 597
233 690
233 234
233 410
233 329
234 236
234 596
234 641
234 235
234 68
235 157
235 149
235 236
235 466
235 650
236 237
236 120
236 144
236 252
236 536
237 275
237 530
237 514
237 238
237 82
238 239
238 566
238 576
238 180
238 381
239 388
239 214
239 240
239 266
239 317
240 241
240 142
240 190
240 391
240 373
241 523
241 242
241 546
241 432
241 97
242 659
242 105
242 420
242 243
242 404
243 116
243 117
243 670
243 241
243 244
244 220
244 245
244 676
244 460
244 54
245 437
245 685
245 246
245 537
245 299
246 408
246 346
246 247
246 238
246 198
247 140
247 248
247 651
247 483
247 234
248 448
248 249
248 480
248 212
248 592
249 250
249 501
249 194
249 236
249 383
250 251
250 387
250 90
250 292
250 623
251 184
251 171
251 252
251 518
251 368
252 459
252 482
252 253
252 285
252 663
253 100
253 183
253 567
253 687
253 254
254 461
254 255
254 158
254 18
254 397
255 256
255 192
255 22
255 389
255 397
256 520
256 323
256 123
256 257
256 698
257 513
257 47
257 258
257 424
257 112
258 256
258 259
258 156
258 227
258 583
259 260
259 444
259 418
259 374
259 28
260 500
260 261
260 562
260 697
260 217
261 606
261 679
261 262
261 656
261 273
262 384
262 700
262 690
262 421
262 263
263 9
263 386
263 40
263 43
263 264
264 338
264 563
264 265
264 437
264 627
265 94
265 236
265 266
265 223
265 79
266 13
266 101
266 15
266 267
266 241
267 193
267 304
267 358
267 42
267 268
268 471
268 493
268 599
268 269
268 189
269 621
269 270
269 681
269 419
269 564
270 434
270 378
270 558
270 20
270 271
271 237
271 437
271 570
271 272
271 559
272 149
272 597
272 311
272 370
272 273
273 330
273 274
273 538
273 356
273 105
274 275
274 211
274 609
274 660
274 439
275 27
275 695
275 151
275 169
275 276
276 277
276 140
276 292
276 391
276 227
277 344
277 278
277 89
277 589
277 349
278 378
278 288
278 279
278 517
278 595
279 545
279 538
279 235
279 280
279 421
280 695
280 12
280 438
280 281
280 379
281 282
281 670
281 210
281 589
281 175
282 452
282 11
282 183
282 77
282 283
283 72
283 458
283 18
283 284
283 170
284 212
284 636
284 139
284 285
284 508
285 672
285 395
285 617
285 286
285 677
286 476
286 633
286 287
286 93
286 460
287 211
287 189
287 687
287 288
287 269
288 289
288 334
288 488
288 14
288 274
289 142
289 290
289 393
289 395
289 675
290 94
290 265
290 150
290 678
290 291
291 584
291 414
291 292
291 540
291 228
292 310
292 397
292 30
292 254
292 293
293 386
293 428
293 294
293 168
293 516
294 19
294 212
294 180
294 295
294 244
295 40
295 639
295 638
295 686
295 296
296 297
296 57
296 520
296 169
296 537
297 304
297 646
297 532
297 631
297 298
298 67
298 632
298 299
298 127
298 352
299 436
299 300
299 265
299 148
299 634
300 297
300 301
300 329
300 465
300 453
301 302
301 594
301 12
301 450
301 181
302 367
302 303
302 255
302 93
302 435
303 601
303 668
303 409
303 304
303 107
304 305
304 217
304 319
304 72
304 145
305 342
305 522
305 306
305 368
305 213
306 549
306 40
306 272
306 307
306 491
307 484
307 336
307 357
307 308
307 322
308 479
308 572
308 296
308 82
308 309
309 555
309 52
309 635
309 310
309 372
310 153
310 651
310 67
310 311
310 636
311 74
311 312
311 20
311 418
311 654
312 360
312 454
312 199
312 313
312 564
313 459
313 335
313 148
313 614
313 314
314 233
314 381
314 688
314 315
314 59
315 134
315 316
315 170
315 285
315 47
316 84
316 317
316 334
316 664
316 357
317 332
317 391
317 169
317 318
317 174
318 603
318 573
318 282
318 150
318 319
319 268
319 153
319 308
319 201
319 320
320 376
320 321
320 71
320 427
320 76
321 416
321 453
321 696
321 392
321 322
322 186
322 295
322 691
322 146
322 323
323 276
323 324
323 241
323 679
323 165
324 338
324 375
324 59
324 325
324 446
325 326
325 129
325 51
325 230
325 657
326 20
326 466
326 144
326 679
326 327
327 328
327 635
327 205
327 60
327 120
328 71
328 337
328 329
328 230
328 442
329 326
329 552
329 335
329 209
329 330
330 46
330 383
330 26
330 331
330 182
331 665
331 389
331 334
331 657
331 332
332 333
332 208
332 156
332 325
332 625
333 456
333 334
333 531
333 606
333 80
334 288
334 695
334 321
334 279
334 335
335 598
335 673
335 698
335 558
335 336
336 160
336 164
336 337
336 352
336 443
337 466
337 338
337 603
337 384
337 392
338 339
338 603
338 555
338 632
338 488
339 279
339 340
339 678
339 518
339 364
340 198
340 341
340 677
340 416
340 320
341 194
341 434
341 342
341 134
341 32
342 343
342 42
342 698
342 486
342 492
343 105
343 35
343 344
343 158
343 354
344 117
344 427
344 345
344 445
344 603
345 600
345 346
345 652
345 308
345 614
346 553
346 204
346 347
346 473
346 379
347 244
347 105
347 230
347 348
347 452
348 309
348 416
348 642
348 349
349 350
349 344
349 71
349 396
349 1
350 524
350 679
350 351
350 378
350 459
351 459
351 174
351 352
351 467
351 482
352 353
352 604
352 496
352 327
352 26
353 284
353 63
353 354
353 241
353 230
354 216
354 210
354 532
354 570
354 355
355 122
355 560
355 633
355 356
355 253
356 488
356 357
356 41
356 33
356 430
357 104
357 319
357 106
357 199
357 358
358 359
358 505
358 509
358 577
359 168
359 521
359 360
359 126
359 41
360 386
360 361
360 431
360 186
360 523
361 613
361 69
361 121
361 362
361 496
362 522
362 363
362 61
362 616
362 624
363 364
363 248
363 280
363 34
363 278
364 278
364 365
364 631
364 487
364 591
365 285
365 170
365 370
365 526
365 366
366 448
366 129
366 437
366 255
366 367
367 470
367 368
367 682
367 480
367 120
368 85
368 45
368 455
368 683
368 369
369 666
369 390
369 370
369 244
369 586
370 204
370 371
370 315
370 454
370 196
371 372
371 529
371 628
371 431
371 77
372 373
372 694
372 23
372 123
372 230
373 233
373 135
373 684
373 374
373 244
374 108
374 152
374 150
374 75
374 375
375 75
375 214
375 376
375 294
375 418
376 370
376 505
376 227
376 534
376 377
377 19
377 606
377 109
377 76
377 378
378 385
378 155
378 379
378 464
378 577
379 381
379 677
379 87
379 380
379 131
380 215
380 14
380 666
380 397
380 381
381 382
381 394
381 378
381 14
381 603
382 468
382 139
382 196
382 383
383 335
383 180
383 697
383 464
383 384
384 385
384 180
384 498
384 246
384 105
385 318
385 500
385 247
385 323
385 386
386 621
386 360
386 387
386 619
386 150
387 400
387 388
387 217
387 655
387 195
388 99
388 389
388 192
388 16
388 215
389 50
389 390
389 404
389 573
389 141
390 569
390 83
390 365
390 297
390 391
391 75
391 560
391 392
391 188
391 291
392 149
392 393
392 3
392 637
392 383
393 479
393 594
393 394
393 392
393 219
394 395
394 106
394 403
394 326
394 327
395 266
395 386
395 396
395 606
395 143
396 294
396 195
396 397
396 467
396 592
397 154
397 328
397 616
397 398
397 142
398 399
398 672
398 669
398 311
398 656
399 400
399 57
399 590
399 207
399 73
400 332
400 401
400 615
400 277
400 365
401 256
401 402
401 388
401 629
401 181
402 150
402 229
402 324
402 31
402 403
403 427
403 404
403 517
403 684
403 296
404 394
404 405
404 349
404 377
404 535
405 519
405 403
405 539
405 406
406 407
406 365
406 62
406 342
406 132
407 408
407 615
407 214
407 301
407 216
408 187
408 352
408 409
408 363
408 210
409 410
409 30
409 127
409 623
409 168
410 286
410 661
410 193
410 411
410 103
411 255
411 686
411 487
411 412
411 408
412 363
412 692
412 282
412 413
412 154
413 102
413 213
413 636
413 414
413 253
414 409
414 415
414 56
414 523
414 583
415 91
415 416
415 373
415 364
415 626
416 417
416 368
416 183
416 247
416 489
417 594
417 418
417 169
417 76
417 383
418 131
418 443
418 401
418 41
418 419
419 656
419 487
419 420
419 139
419 107
420 597
420 458
420 459
420 421
420 120
421 437
421 345
421 125
421 422
421 658
422 423
422 4
422 606
422 43
422 95
423 566
423 424
423 369
423 458
423 663
424 664
424 595
424 425
424 581
424 247
425 426
425 625
425 196
425 330
425 442
426 335
426 115
426 427
426 42
426 343
427 459
427 647
427 300
427 428
427 278
428 429
428 159
428 207
428 147
429 430
429 307
429 106
429 371
429 641
430 186
430 431
430 78
430 443
430 630
431 169
431 176
431 49
431 432
431 428
432 562
432 433
432 17
432 50
432 249
433 434
433 234
433 657
433 535
433 154
434 166
434 57
434 181
434 435
434 421
435 611
435 76
435 48
435 80
435 436
436 567
436 503
436 437
436 532
436 117
437 450
437 79
437 296
437 657
437 438
438 439
438 407
438 395
438 1
438 48
439 355
439 31
439 354
439 669
439 440
440 420
440 16
440 441
440 128
440 348
441 612
441 619
441 294
441 606
441 442
442 282
442 306
442 663
442 443
442 170
443 234
443 590
443 661
443 444
443 202
444 146
444 227
444 547
444 229
444 445
445 356
445 614
445 446
445 687
445 207
446 447
446 70
446 553
446 467
446 471
447 380
447 311
447 128
447 448
447 336
448 43
448 326
448 449
448 430
448 323
449 167
449 219
449 494
449 636
449 450
450 20
450 494
450 446
450 451
450 17
451 150
451 452
451 227
451 588
451 69
452 104
452 453
452 641
452 590
452 238
453 478
453 454
453 66
453 280
453 85
454 296
454 455
454 239
454 626
454 147
455 159
455 588
455 533
455 383
455 456
456 338
456 212
456 362
456 457
456 110
457 364
457 343
457 424
457 458
457 672
458 459
458 583
458 536
458 6
458 68
459 75
459 61
459 424
459 184
459 460
460 92
460 461
460 84
460 620
460 85
461 351
461 603
461 221
461 309
461 462
462 149
462 463
462 111
462 34
462 86
463 375
463 196
463 464
463 396
463 434
464 162
464 381
464 45
464 127
464 465
465 216
465 48
465 181
465 478
465 466
466 336
466 319
466 463
466 467
466 266
467 269
467 468
467 299
467 525
467 238
468 469
468 509
468 200
468 699
468 459
469 86
469 495
469 470
469 74
469 264
470 471
470 631
470 438
470 563
470 468
471 135
471 472
471 147
471 671
471 690
472 181
472 359
472 473
472 211
472 360
473 474
473 49
473 295
473 224
473 94
474 417
474 500
474 475
474 550
474 604
475 110
475 112
475 607
475 602
475 476
476 589
476 57
476 244
476 477
476 49
477 391
477 315
477 311
477 478
477 402
478 7
478 225
478 479
478 355
478 631
479 582
479 480
479 665
479 65
479 164
480 453
480 475
480 687
480 481
480 111
481 482
481 543
481 637
481 517
481 14
482 105
482 483
482 603
482 71
482 242
483 441
483 89
483 524
483 484
483 432
484 422
484 217
484 485
484 19
484 60
485 63
485 486
485 7
485 358
486 389
486 420
486 487
486 565
486 298
487 491
487 355
487 488
487 65
487 627
488 64
488 457
488 334
488 489
488 177
489 204
489 490
489 96
489 450
489 571
490 667
490 491
490 40
490 659
490 645
491 392
491 402
491 492
491 481
491 431
492 493
492 28
492 649
492 674
492 266
493 477
493 494
493 134
493 32
493 285
494 495
494 641
494 57
494 278
494 147
495 562
495 654
495 197
495 625
495 496
496 238
496 656
496 554
496 8
496 497
497 498
497 204
497 203
497 144
497 276
498 474
498 499
498 167
498 426
498 465
499 527
499 500
499 338
499 529
500 501
500 476
500 331
500 1
500 276
501 461
501 576
501 149
501 502
501 394
502 189
502 50
502 248
502 503
502 508
503 181
503 504
503 303
503 548
503 611
504 310
504 651
504 653
504 201
504 505
505 592
505 506
505 304
505 683
505 191
506 1
506 22
506 142
506 507
506 635
507 114
507 197
507 346
507 508
507 80
508 146
508 122
508 144
508 80
508 509
509 451
509 510
509 53
509 434
509 20
510 523
510 171
510 94
510 511
510 46
511 595
511 437
511 192
511 455
511 512
512 368
512 513
512 220
512 379
512 465
513 56
513 364
513 514
513 291
513 420
514 69
514 647
514 255
514 549
514 515
515 516
515 464
515 434
515 59
515 215
516 517
516 549
516 473
516 481
517 21
517 518
517 264
517 563
517 292
518 182
518 191
518 242
518 26
518 519
519 590
519 86
519 114
519 19
519 520
520 670
520 521
520 149
520 52
520 445
521 568
521 219
521 630
521 522
521 178
522 23
522 600
522 687
522 523
522 457
523 158
523 474
523 524
523 16
523 398
524 456
524 399
524 525
524 560
524 538
525 526
525 623
525 363
525 11
525 40
526 527
526 626
526 13
526 177
526 258
527 610
527 211
527 159
527 528
527 149
528 84
528 495
528 690
528 100
528 529
529 131
529 530
529 582
529 89
529 612
530 531
530 674
530 594
530 637
530 379
531 522
531 532
531 110
531 73
531 355
532 567
532 569
532 533
532 620
532 85
533 47
533 32
533 366
533 534
533 122
534 503
534 217
534 247
534 224
534 535
535 165
535 536
535 256
535 32
535 202
536 43
536 151
536 537
536 477
536 421
537 368
537 25
537 538
537 327
537 372
538 290
538 77
538 63
538 539
538 495
539 540
539 206
539 124
539 490
539 168
540 40
540 237
540 344
540 541
540 30
541 171
541 148
541 94
541 542
541 231
542 108
542 23
542 150
542 543
542 85
543 452
543 544
543 378
543 506
543 46
544 545
544 422
544 62
544 142
544 347
545 212
545 71
545 31
545 569
545 546
546 508
546 368
546 81
546 547
546 488
547 548
547 653
547 250
547 613
547 217
548 549
548 309
548 5
548 285
548 537
549 550
549 466
549 617
549 498
549 595
550 458
550 695
550 244
550 551
550 93
551 144
551 661
551 552
551 665
551 72
552 432
552 314
552 543
552 468
552 553
553 349
553 325
553 127
553 554
553 557
554 556
554 555
554 440
554 402
554 340
555 556
555 227
555 637
555 546
555 368
556 267
556 264
556 557
556 13
556 265
557 558
557 479
557 379
557 548
557 51
558 561
558 260
558 680
558 611
558 559
559 523
559 101
559 560
559 235
559 648
560 364
560 429
560 561
560 247
560 299
561 204
561 33
561 234
561 562
562 619
562 228
562 368
562 563
562 621
563 440
563 566
563 311
563 564
563 547
564 565
564 634
564 325
564 321
564 4
565 6
565 88
565 566
565 64
565 683
566 433
566 620
566 211
566 133
566 567
567 357
567 670
567 568
567 460
567 608
568 277
568 220
568 649
568 396
568 569
569 570
569 244
569 588
569 306
569 479
570 65
570 293
570 571
570 342
570 270
571 46
571 206
571 68
571 609
571 572
572 619
572 625
572 575
572 36
572 573
573 85
573 574
573 546
573 15
573 593
574 233
574 667
574 575
574 534
574 518
575 559
575 255
575 342
575 434
575 576
576 577
576 682
576 599
576 282
576 587
577 554
577 209
577 578
577 550
577 138
578 35
578 579
578 414
578 595
578 64
579 534
579 580
579 445
579 60
579 195
580 413
580 461
580 603
580 577
580 581
581 32
581 317
581 582
581 651
581 585
582 695
582 477
582 678
582 494
582 583
583 523
583 662
583 237
583 311
583 584
584 681
584 585
584 624
584 188
584 423
585 586
585 688
585 151
585 506
585 305
586 61
586 587
586 156
586 400
586 162
587 148
587 107
587 154
587 232
587 588
588 589
588 569
588 297
588 178
588 185
589 485
589 590
589 646
589 109
590 262
590 635
590 591
590 59
590 467
591 27
591 592
591 309
591 283
591 402
592 486
592 650
592 593
592 156
592 596
593 438
593 294
593 655
593 594
593 690
594 157
594 595
594 441
594 537
594 347
595 666
595 214
595 596
595 353
595 60
596 699
596 597
596 609
596 190
596 201
597 598
597 699
597 593
597 670
597 24
598 154
598 211
598 699
598 601
598 599
599 520
599 511
599 221
599 217
599 600
600 554
600 290
600 423
600 601
600 627
601 646
601 431
601 139
601 429
601 602
602 155
602 362
602 204
602 473
602 603
603 179
603 46
603 604
603 53
603 674
604 605
604 119
604 697
604 19
604 202
605 187
605 325
605 642
605 606
605 393
606 126
606 364
606 62
606 607
606 387
607 608
607 286
607 553
607 439
607 696
608 446
608 308
608 609
608 237
608 318
609 534
609 610
609 676
609 627
610 611
610 32
610 218
610 631
610 179
611 278
611 612
611 660
611 473
611 103
612 635
612 221
612 307
612 678
612 613
613 147
613 614
613 208
613 636
613 29
614 581
614 677
614 615
614 131
614 137
615 169
615 200
615 616
615 496
615 35
616 617
616 239
616 404
616 301
616 292
617 618
617 242
617 384
617 432
617 362
618 619
618 66
618 128
618 607
618 341
619 287
619 319
619 351
619 268
619 620
620 58
620 143
620 529
620 621
620 132
621 86
621 622
621 296
621 77
621 436
622 520
622 251
622 102
622 184
622 623
623 143
623 64
623 624
623 646
623 468
624 625
624 48
624 312
624 133
624 307
625 23
625 614
625 236
625 626
625 432
626 300
626 91
626 515
626 62
626 627
627 400
627 437
627 152
627 628
627 578
628 505
628 629
628 522
628 640
628 253
629 630
629 185
629 569
629 198
629 221
630 15
630 631
630 560
630 192
630 78
631 632
631 110
631 129
631 526
631 194
632 87
632 633
632 365
632 81
632 645
633 195
633 65
633 657
633 634
633 635
634 164
634 636
634 635
634 339
634 158
635 636
635 641
635 683
635 18
635 661
636 637
636 88
636 205
636 398
636 373
637 635
637 497
637 146
637 333
637 638
638 540
638 596
638 216
638 639
638 120
639 266
639 17
639 439
639 640
639 545
640 451
640 603
640 143
640 427
640 641
641 42
641 642
641 271
641 248
641 601
642 341
642 660
642 486
642 434
642 643
643 644
643 494
643 65
643 163
643 279
644 166
644 645
644 73
644 83
644 101
645 319
645 646
645 553
645 556
645 318
646 119
646 152
646 157
646 453
646 647
647 358
647 648
647 389
647 57
647 669
648 649
648 289
648 221
648 661
648 132
649 219
649 650
649 349
649 622
649 36
650 182
650 581
650 251
650 599
650 651
651 459
651 317
651 342
651 652
651 150
652 653
652 239
652 141
652 623
652 453
653 409
653 654
653 622
653 614
653 664
654 655
654 290
654 260
654 47
654 611
655 689
655 638
655 281
655 11
655 656
656 475
656 138
656 440
656 657
656 498
657 347
657 599
657 658
657 424
657 508
658 373
658 659
658 660
658 602
658 29
659 660
659 608
659 446
659 156
659 85
660 661
660 586
660 179
660 416
660 363
661 369
661 517
661 673
661 662
661 200
662 468
662 193
662 663
662 507
662 649
663 683
663 163
663 171
663 232
663 664
664 293
664 55
664 228
664 369
664 665
665 375
665 514
665 666
665 306
665 674
666 667
666 678
666 332
666 18
666 556
667 668
667 369
667 317
667 31
667 654
668 647
668 669
668 340
668 110
668 433
669 288
669 420
669 384
669 670
669 107
670 131
670 522
670 424
670 671
670 468
671 674
671 672
671 145
671 533
671 194
672 673
672 106
672 136
672 81
672 220
673 357
673 689
673 499
673 674
673 647
674 105
674 545
674 675
674 338
674 127
675 676
675 442
675 615
675 278
675 553
676 489
676 128
676 172
676 677
676 300
677 678
677 480
677 282
677 426
677 559
678 203
678 51
678 679
678 573
678 141
679 103
679 680
679 671
679 19
679 528
680 671
680 553
680 249
680 681
680 230
681 682
681 541
681 223
681 190
681 699
682 188
682 477
682 130
682 35
682 683
683 639
683 133
683 684
683 135
683 87
684 316
684 151
684 230
684 685
684 674
685 72
685 208
685 643
685 89
685 686
686 179
686 280
686 253
686 687
686 507
687 688
687 105
687 662
687 212
687 290
688 516
688 689
688 21
688 152
688 121
689 690
689 502
689 666
689 52
689 19
690 379
690 510
690 79
690 691
690 410
691 552
691 623
691 290
691 692
691 108
692 409
692 693
692 363
692 82
692 602
693 519
693 694
693 145
693 641
693 520
694 306
694 50
694 695
694 59
694 434
695 397
695 696
695 566
695 36
695 181
696 608
696 206
696 536
696 667
696 697
697 698
697 609
697 666
697 349
697 149
698 67
698 211
698 341
698 699
698 560
699 480
699 700
699 90
699 401
699 152
700 1
700 606
700 17
700 401
700 510
